language Essence 1.3

letting blksize_delta be
        function(1 --> 10, 2 --> 10, 3 --> 10, 4 --> 10, 5 --> 10, 6 --> 10, 7 --> 10, 8 --> 10, 9 --> 10, 10 --> 10,
                 11 --> 10, 12 --> 10, 13 --> 10, 14 --> 10, 15 --> 10, 16 --> 10, 17 --> 10, 18 --> 10, 19 --> 10,
                 20 --> 10, 21 --> 10, 22 --> 10, 23 --> 10, 24 --> 10, 25 --> 10, 26 --> 10, 27 --> 10, 28 --> 10,
                 29 --> 10, 30 --> 10, 31 --> 10, 32 --> 10, 33 --> 10, 34 --> 10, 35 --> 10, 36 --> 10, 37 --> 10,
                 38 --> 10, 39 --> 10, 40 --> 10, 41 --> 10, 42 --> 10, 43 --> 10, 44 --> 10)
letting maxcars be
        function(1 --> 10, 2 --> 8, 3 --> 10, 4 --> 8, 5 --> 8, 6 --> 8, 7 --> 8, 8 --> 8, 9 --> 8, 10 --> 8, 11 --> 8,
                 12 --> 8, 13 --> 8, 14 --> 8, 15 --> 8, 16 --> 8, 17 --> 8, 18 --> 8, 19 --> 8, 20 --> 8, 21 --> 8,
                 22 --> 8, 23 --> 8, 24 --> 8, 25 --> 8, 26 --> 8, 27 --> 8, 28 --> 8, 29 --> 8, 30 --> 10, 31 --> 8,
                 32 --> 9, 33 --> 8, 34 --> 8, 35 --> 10, 36 --> 8, 37 --> 8, 38 --> 8, 39 --> 8, 40 --> 8, 41 --> 8,
                 42 --> 8, 43 --> 8, 44 --> 8)
letting n_cars be 165
letting n_classes be 19
letting n_options be 44
letting quantity be
        function(1 --> 7, 2 --> 2, 3 --> 2, 4 --> 4, 5 --> 10, 6 --> 10, 7 --> 10, 8 --> 10, 9 --> 10, 10 --> 10,
                 11 --> 10, 12 --> 10, 13 --> 10, 14 --> 10, 15 --> 10, 16 --> 10, 17 --> 10, 18 --> 10, 19 --> 10)
letting usage be
        relation((1, 1), (1, 8), (1, 13), (1, 22), (1, 26), (1, 41), (2, 1), (2, 2), (2, 32), (2, 44), (3, 13), (3, 23),
                 (3, 32), (3, 39), (3, 42), (3, 44), (4, 44), (5, 6), (5, 37), (5, 44), (6, 14), (6, 17), (6, 18),
                 (6, 21), (6, 36), (6, 38), (7, 6), (7, 20), (7, 24), (7, 26), (7, 44), (8, 1), (8, 8), (8, 36),
                 (8, 43), (9, 29), (9, 36), (9, 44), (10, 12), (10, 17), (10, 25), (10, 29), (10, 33), (11, 11),
                 (11, 14), (11, 21), (11, 24), (11, 30), (11, 32), (11, 35), (12, 4), (12, 9), (12, 19), (12, 25),
                 (13, 2), (13, 11), (13, 16), (13, 27), (13, 38), (14, 2), (14, 7), (14, 17), (14, 43), (15, 5),
                 (15, 6), (15, 10), (15, 15), (15, 27), (15, 28), (15, 31), (15, 33), (15, 43), (15, 44), (16, 22),
                 (16, 26), (16, 43), (17, 1), (17, 11), (17, 21), (18, 32), (18, 35), (18, 40), (19, 3), (19, 13),
                 (19, 17), (19, 23), (19, 34), (19, 36), (19, 39))
$ Visualisation for usage
$  1  1
$  1  8
$  1 13
$  1 22
$  1 26
$  1 41
$  2  1
$  2  2
$  2 32
$  2 44
$  3 13
$  3 23
$  3 32
$  3 39
$  3 42
$  3 44
$  4 44
$  5  6
$  5 37
$  5 44
$  6 14
$  6 17
$  6 18
$  6 21
$  6 36
$  6 38
$  7  6
$  7 20
$  7 24
$  7 26
$  7 44
$  8  1
$  8  8
$  8 36
$  8 43
$  9 29
$  9 36
$  9 44
$ 10 12
$ 10 17
$ 10 25
$ 10 29
$ 10 33
$ 11 11
$ 11 14
$ 11 21
$ 11 24
$ 11 30
$ 11 32
$ 11 35
$ 12  4
$ 12  9
$ 12 19
$ 12 25
$ 13  2
$ 13 11
$ 13 16
$ 13 27
$ 13 38
$ 14  2
$ 14  7
$ 14 17
$ 14 43
$ 15  5
$ 15  6
$ 15 10
$ 15 15
$ 15 27
$ 15 28
$ 15 31
$ 15 33
$ 15 43
$ 15 44
$ 16 22
$ 16 26
$ 16 43
$ 17  1
$ 17 11
$ 17 21
$ 18 32
$ 18 35
$ 18 40
$ 19  3
$ 19 13
$ 19 17
$ 19 23
$ 19 34
$ 19 36
$ 19 39

